100
120
99
96
95
94
92
92
92
92
91
90
89
88
87
86
85
83
83
83
83
82
80
80
80
78
77
76
76
75
75
74
74
73
72
71
71
71
68
68
68
66
64
62
59
58
58
55
55
54
54
53
53
53
52
52
51
50
50
47
46
45
43
42
41
41
40
40
39
39
38
38
37
37
36
35
35
35
35
33
33
33
32
32
32
30
28
27
27
26
25
25
25
24
24
23
23
22
22
21
21
20
